20191231 52500.00 42400.00
20180525 52600.00 40800.00
20171017 52637.55 41359.21
20170605 17639.60 13797.40
20170118 17660.80 13471.51
20160630 17690.40 13202.95
20160516 17690.40 13202.95
20160118 17759.80 13202.95
